NAME : block_03.500107.tour
COMMENT : Length = 500107
COMMENT : Found by LKH-3 [Keld Helsgaun] Wed Apr 22 15:38:56 2026
TYPE : TOUR
DIMENSION : 139
TOUR_SECTION
129
130
126
125
121
122
123
119
115
111
107
104
100
101
96
95
89
81
82
90
91
83
84
69
70
71
56
57
72
73
74
75
76
85
77
62
61
60
47
46
59
58
45
34
33
44
43
32
31
42
55
54
41
30
22
21
29
40
53
68
67
52
39
28
20
19
27
38
37
36
25
26
18
13
12
17
16
11
10
2
139
1
3
4
7
8
5
6
9
14
15
23
24
35
48
63
78
86
92
97
98
93
87
79
64
49
50
51
66
65
80
88
94
99
103
102
105
106
110
114
118
117
113
109
108
112
116
120
124
128
127
131
132
135
138
136
137
134
133
-1
EOF
